(set-logic QF_SLAH)

(declare-datatypes ((data_t 0)) (((c_data_t (sz Int)))))

(declare-heap (Int data_t))

(define-fun hck ((?x Int) (?y Int) (?v Int)) Bool
	(and
		(>= (- ?y ?x) 2) (<= (- ?y ?x) ?v)
		(sep (pto ?x (c_data_t (- ?y ?x))) (blk (+ ?x 1) ?y))
))

(define-fun-rec hls ((?x Int) (?y Int) (?v Int)) Bool
	(or
		(and (= ?x ?y) (_ emp Int data_t))
		(exists ((?w Int)) (sep (hck ?x ?w ?v) (hls ?w ?y ?v)))
))

(declare-const x0 Int)
(declare-const x1 Int)
(declare-const x2 Int)
(declare-const x3 Int)
(declare-const v2 Int)
(declare-const x4 Int)
(declare-const x5 Int)
(declare-const x6 Int)
(declare-const x7 Int)
(declare-const v6 Int)
(declare-const x8 Int)
(declare-const x9 Int)
(declare-const x10 Int)
(declare-const x11 Int)
(declare-const v10 Int)
(declare-const x12 Int)
(declare-const x13 Int)
(declare-const x14 Int)
(declare-const x15 Int)
(declare-const x16 Int)
(declare-const x17 Int)
(declare-const v16 Int)
(declare-const x18 Int)
(declare-const x19 Int)
(declare-const v18 Int)
(declare-const x20 Int)
(declare-const x21 Int)
(declare-const x22 Int)
(declare-const x23 Int)
(declare-const x24 Int)
(declare-const x25 Int)
(declare-const x26 Int)
(declare-const x27 Int)
(declare-const x28 Int)
(declare-const x29 Int)
(declare-const x30 Int)
(declare-const x31 Int)
(declare-const x32 Int)
(declare-const x33 Int)
(declare-const x34 Int)
(declare-const x35 Int)
(declare-const x36 Int)
(declare-const x37 Int)
(declare-const x38 Int)
(declare-const x39 Int)
(declare-const x40 Int)
(declare-const x41 Int)
(declare-const v40 Int)
(declare-const x42 Int)
(declare-const x43 Int)
(declare-const v42 Int)
(declare-const x44 Int)
(declare-const x45 Int)
(declare-const x46 Int)
(declare-const x47 Int)
(declare-const v46 Int)
(declare-const x48 Int)
(declare-const x49 Int)
(declare-const x50 Int)
(declare-const x51 Int)
(declare-const x52 Int)
(declare-const x53 Int)
(declare-const v52 Int)
(declare-const x54 Int)
(declare-const x55 Int)
(declare-const x56 Int)
(declare-const x57 Int)
(declare-const v56 Int)
(declare-const x58 Int)
(declare-const x59 Int)
(declare-const x60 Int)
(declare-const x61 Int)
(declare-const v60 Int)
(declare-const x62 Int)
(declare-const x63 Int)
(declare-const v62 Int)
(declare-const x64 Int)
(declare-const x65 Int)
(declare-const v64 Int)
(declare-const x66 Int)
(declare-const x67 Int)
(declare-const v66 Int)
(declare-const x68 Int)
(declare-const x69 Int)
(declare-const v68 Int)
(declare-const x70 Int)
(declare-const x71 Int)
(declare-const v70 Int)
(declare-const x72 Int)
(declare-const x73 Int)
(declare-const v72 Int)
(declare-const x74 Int)
(declare-const x75 Int)
(declare-const x76 Int)
(declare-const x77 Int)
(declare-const x78 Int)
(declare-const x79 Int)
(declare-const x80 Int)
(declare-const x81 Int)
(declare-const x82 Int)
(declare-const x83 Int)
(declare-const x84 Int)
(declare-const x85 Int)
(declare-const x86 Int)
(declare-const x87 Int)
(declare-const v86 Int)
(declare-const x88 Int)
(declare-const x89 Int)
(declare-const v88 Int)
(declare-const x90 Int)
(declare-const x91 Int)
(declare-const x92 Int)
(declare-const x93 Int)
(declare-const v92 Int)
(declare-const x94 Int)
(declare-const x95 Int)
(declare-const v94 Int)
(declare-const x96 Int)
(declare-const x97 Int)
(declare-const x98 Int)
(declare-const x99 Int)
(declare-const x100 Int)
(declare-const x101 Int)
(declare-const x102 Int)
(declare-const x103 Int)
(declare-const v102 Int)
(declare-const x104 Int)
(declare-const x105 Int)
(declare-const x106 Int)
(declare-const x107 Int)
(declare-const x108 Int)
(declare-const x109 Int)
(declare-const v108 Int)
(declare-const x110 Int)
(declare-const x111 Int)
(declare-const v110 Int)
(declare-const x112 Int)
(declare-const x113 Int)
(declare-const v112 Int)
(declare-const x114 Int)
(declare-const x115 Int)
(declare-const x116 Int)
(declare-const x117 Int)
(declare-const x118 Int)
(declare-const x119 Int)
(declare-const x120 Int)
(declare-const x121 Int)
(declare-const x122 Int)
(declare-const x123 Int)
(declare-const x124 Int)
(declare-const x125 Int)
(declare-const v124 Int)
(declare-const x126 Int)
(declare-const x127 Int)
(declare-const x128 Int)
(declare-const x129 Int)
(declare-const v128 Int)
(declare-const x130 Int)
(declare-const x131 Int)
(declare-const v130 Int)
(declare-const x132 Int)
(declare-const x133 Int)
(declare-const x134 Int)
(declare-const x135 Int)
(declare-const x136 Int)
(declare-const x137 Int)
(declare-const x138 Int)
(declare-const x139 Int)
(declare-const x140 Int)
(declare-const x141 Int)
(declare-const x142 Int)
(declare-const x143 Int)
(declare-const x144 Int)
(declare-const x145 Int)
(declare-const x146 Int)
(declare-const x147 Int)
(declare-const x148 Int)
(declare-const x149 Int)
(declare-const x150 Int)
(declare-const x151 Int)
(declare-const v150 Int)
(declare-const x152 Int)
(declare-const x153 Int)
(declare-const x154 Int)
(declare-const x155 Int)
(declare-const v154 Int)
(declare-const x156 Int)
(declare-const x157 Int)
(declare-const x158 Int)
(declare-const x159 Int)
(declare-const v158 Int)
(declare-const x160 Int)
(declare-const x161 Int)
(declare-const x162 Int)
(declare-const x163 Int)
(declare-const x164 Int)
(declare-const x165 Int)
(declare-const v164 Int)
(declare-const x166 Int)
(declare-const x167 Int)
(declare-const v166 Int)
(declare-const x168 Int)
(declare-const x169 Int)
(declare-const x170 Int)
(declare-const x171 Int)
(declare-const v170 Int)
(declare-const x172 Int)
(declare-const x173 Int)
(declare-const x174 Int)
(declare-const x175 Int)
(declare-const x176 Int)
(declare-const x177 Int)
(declare-const x178 Int)
(declare-const x179 Int)

(assert(and
(distinct x63 x20) (< x99 x120) (= x93 x69) 
(sep
(pto x0 (c_data_t x1))
(hls x2 x3 v2)
(blk x4 x5)
(hls x6 x7 v6)
(pto x8 (c_data_t x9))
(hls x10 x11 v10)
(pto x12 (c_data_t x13))
(blk x14 x15)
(hls x16 x17 v16)
(hls x18 x19 v18)
(blk x20 x21)
(pto x22 (c_data_t x23))
(blk x24 x25)
(pto x26 (c_data_t x27))
(pto x28 (c_data_t x29))
(blk x30 x31)
(pto x32 (c_data_t x33))
(blk x34 x35)
(blk x36 x37)
(blk x38 x39)
(hls x40 x41 v40)
(hls x42 x43 v42)
(blk x44 x45)
(hls x46 x47 v46)
(blk x48 x49)
(pto x50 (c_data_t x51))
(hls x52 x53 v52)
(pto x54 (c_data_t x55))
(hls x56 x57 v56)
(blk x58 x59)
(hls x60 x61 v60)
(hls x62 x63 v62)
(hls x64 x65 v64)
(hls x66 x67 v66)
(hls x68 x69 v68)
(hls x70 x71 v70)
(hls x72 x73 v72)
(blk x74 x75)
(pto x76 (c_data_t x77))
(blk x78 x79)
(pto x80 (c_data_t x81))
(blk x82 x83)
(pto x84 (c_data_t x85))
(hls x86 x87 v86)
(hls x88 x89 v88)
(pto x90 (c_data_t x91))
(hls x92 x93 v92)
(hls x94 x95 v94)
(pto x96 (c_data_t x97))
(blk x98 x99)
(pto x100 (c_data_t x101))
(hls x102 x103 v102)
(blk x104 x105)
(blk x106 x107)
(hls x108 x109 v108)
(hls x110 x111 v110)
(hls x112 x113 v112)
(pto x114 (c_data_t x115))
(pto x116 (c_data_t x117))
(blk x118 x119)
(blk x120 x121)
(blk x122 x123)
(hls x124 x125 v124)
(blk x126 x127)
(hls x128 x129 v128)
(hls x130 x131 v130)
(pto x132 (c_data_t x133))
(blk x134 x135)
(blk x136 x137)
(pto x138 (c_data_t x139))
(pto x140 (c_data_t x141))
(pto x142 (c_data_t x143))
(blk x144 x145)
(blk x146 x147)
(pto x148 (c_data_t x149))
(hls x150 x151 v150)
(pto x152 (c_data_t x153))
(hls x154 x155 v154)
(pto x156 (c_data_t x157))
(hls x158 x159 v158)
(blk x160 x161)
(blk x162 x163)
(hls x164 x165 v164)
(hls x166 x167 v166)
(pto x168 (c_data_t x169))
(hls x170 x171 v170)
(pto x172 (c_data_t x173))
(blk x174 x175)
(pto x176 (c_data_t x177))
(blk x178 x179)
)))

(check-sat)